CPXPARAM_Emphasis_MIP#P8#2#CPXPARAM_MIP_Cuts_MIRCut#P20#1#2.945037#0.648081
CPXPARAM_Emphasis_MIP#P8#2#CPXPARAM_MIP_Cuts_MIRCut#P20#2#1.646937#0.362423
CPXPARAM_Emphasis_MIP#P8#2#CPXPARAM_MIP_Strategy_NodeSelect#P39#1#2.562150#0.563824
CPXPARAM_Emphasis_MIP#P8#2#CPXPARAM_MIP_Strategy_NodeSelect#P39#2#1.659897#0.365275
CPXPARAM_Emphasis_MIP#P8#2#CPXPARAM_MIP_Strategy_NodeSelect#P39#3#0.483934#0.106494
CPXPARAM_Emphasis_MIP#P8#3#CPXPARAM_MIP_Cuts_MIRCut#P20#1#0.483959#0.106499
CPXPARAM_Emphasis_MIP#P8#3#CPXPARAM_MIP_Strategy_NodeSelect#P39#1#3.155912#0.694486
CPXPARAM_Emphasis_MIP#P8#3#CPXPARAM_MIP_Strategy_NodeSelect#P39#2#3.155880#0.694479
CPXPARAM_Emphasis_MIP#P8#4#CPXPARAM_MIP_Strategy_NodeSelect#P39#1#1.432408#0.315214
CPXPARAM_Emphasis_MIP#P8#4#CPXPARAM_MIP_Strategy_NodeSelect#P39#2#1.432380#0.315208
CPXPARAM_Emphasis_MIP#P8#5#CPXPARAM_MIP_Strategy_NodeSelect#P39#1#2.875212#0.632716
CPXPARAM_Emphasis_MIP#P8#5#CPXPARAM_MIP_Strategy_NodeSelect#P39#2#2.713914#0.597221
CPXPARAM_MIP_Cuts_MIRCut#P20#1#CPXPARAM_MIP_Strategy_NodeSelect#P39#2#1.646953#0.362427
CPXPARAM_MIP_Cuts_MIRCut#P20#2#CPXPARAM_MIP_Strategy_NodeSelect#P39#2#4.544240#1.000000
CPXPARAM_MIP_Cuts_MIRCut#P20#2#CPXPARAM_MIP_Strategy_NodeSelect#P39#3#0.483974#0.106503
